
Gurobi 9.0.2 (win64) logging started Sun Dec 27 07:04:32 2020

Changed value of parameter logfile to result\SunCable-20201227T0415\scenario_2030_p20_cab3000.log
   Prev:   Default: 
Gurobi Optimizer version 9.0.2 build v9.0.2rc0 (win64)
Optimize a model with 1243974 rows, 762167 columns and 3491691 nonzeros
Model fingerprint: 0xc80e1d9a
Coefficient statistics:
  Matrix range     [1e-07, 3e+05]
  Objective range  [1e+00, 1e+00]
  Bounds range     [0e+00, 0e+00]
  RHS range        [2e-05, 3e+08]
Warning: Model contains large matrix coefficient range
         Consider reformulating model or setting NumericFocus parameter
         to avoid numerical issues.

Concurrent LP optimizer: primal simplex, dual simplex, and barrier
Showing barrier log only...

Presolve removed 1068997 rows and 595935 columns
Presolve time: 2.70s
Presolved: 174977 rows, 280098 columns, 652320 nonzeros

Ordering time: 0.08s

Barrier statistics:
 Dense cols : 5
 AA' NZ     : 6.422e+05
 Factor NZ  : 3.150e+06 (roughly 200 MBytes of memory)
 Factor Ops : 7.040e+07 (less than 1 second per iteration)
 Threads    : 30

                  Objective                Residual
Iter       Primal          Dual         Primal    Dual     Compl     Time
   0  -2.44570041e+16 -1.07293947e+15  7.13e+06 2.57e+04  2.94e+12     3s
   1  -5.34565139e+15 -1.08597674e+15  1.56e+06 4.55e+06  8.36e+11     3s
   2  -1.61616107e+15 -1.02985246e+15  4.73e+05 1.12e+06  2.46e+11     4s
   3  -3.40485453e+14 -9.30225866e+14  1.01e+05 1.47e+05  4.91e+10     4s
   4  -8.74214095e+13 -5.77702148e+14  2.50e+04 3.79e+04  1.28e+10     4s
   5  -2.50579452e+13 -4.15977949e+14  7.19e+03 2.17e+04  4.82e+09     5s
   6  -1.02812826e+13 -2.56490526e+14  3.06e+03 8.41e+03  2.06e+09     5s
   7  -3.06930701e+12 -1.18703739e+14  1.02e+03 1.14e+03  5.53e+08     5s
   8   3.86532464e+11 -3.33642043e+13  2.50e+01 6.31e+01  6.74e+07     5s
   9   2.91546824e+11 -1.37010747e+12  1.30e-01 1.77e+00  3.06e+06     5s
  10   1.52997406e+11 -5.55950424e+11  6.22e-02 3.25e-01  1.28e+06     6s
  11   4.62354640e+10 -2.63454871e+11  1.24e-02 1.12e-08  5.50e+05     6s
  12   2.32544795e+10 -8.50876327e+10  5.14e-03 2.24e-08  1.92e+05     6s
  13   1.81476186e+10 -6.30947161e+10  3.70e-03 2.24e-08  1.44e+05     7s
  14   1.59613174e+10 -4.61826767e+10  3.07e-03 1.49e-08  1.10e+05     7s
  15   1.59879850e+10 -3.97468920e+10  2.99e-03 1.49e-08  9.84e+04     7s
  16   1.05714119e+10 -1.48030866e+10  1.15e-03 1.12e-08  4.47e+04     7s
  17   8.08096423e+09  7.00260340e+08  3.64e-04 1.12e-08  1.30e+04     7s
  18   7.28314014e+09  3.79857121e+09  1.55e-04 7.45e-09  6.13e+03     8s
  19   7.04797051e+09  4.82459516e+09  9.65e-05 5.59e-09  3.91e+03     8s
  20   6.91395549e+09  5.15265560e+09  6.30e-05 4.66e-09  3.10e+03     8s
  21   6.82418443e+09  5.41931096e+09  4.15e-05 3.73e-09  2.47e+03     8s
  22   6.81383766e+09  5.61059829e+09  3.91e-05 3.73e-09  2.12e+03     9s
  23   6.76586848e+09  5.91159795e+09  2.79e-05 3.73e-09  1.50e+03     9s
  24   6.74019626e+09  6.13569212e+09  2.20e-05 2.79e-09  1.06e+03     9s
  25   6.71766880e+09  6.20116884e+09  1.64e-05 2.79e-09  9.08e+02    10s
  26   6.70173741e+09  6.38667173e+09  1.24e-05 1.86e-09  5.54e+02    10s
  27   6.68374095e+09  6.48247338e+09  7.88e-06 2.79e-09  3.54e+02    10s
  28   6.67378776e+09  6.51900396e+09  5.45e-06 2.79e-09  2.72e+02    11s
  29   6.66552821e+09  6.57097374e+09  3.41e-06 1.86e-09  1.66e+02    11s
  30   6.66046538e+09  6.59238721e+09  2.22e-06 1.86e-09  1.20e+02    11s
  31   6.65725287e+09  6.61035768e+09  1.47e-06 1.86e-09  8.25e+01    11s
  32   6.65436118e+09  6.62558916e+09  8.00e-07 1.86e-09  5.06e+01    12s
  33   6.65333290e+09  6.63258856e+09  5.71e-07 1.86e-09  3.65e+01    12s
  34   6.65236880e+09  6.63948122e+09  3.67e-07 1.86e-09  2.27e+01    12s
  35   6.65152175e+09  6.64252802e+09  1.83e-07 1.86e-09  1.58e+01    12s
  36   6.65118281e+09  6.64557212e+09  1.36e-07 1.86e-09  9.87e+00    12s
  37   6.65102507e+09  6.64719176e+09  1.37e-07 1.86e-09  6.74e+00    13s
  38   6.65077205e+09  6.64851337e+09  5.75e-08 1.86e-09  3.97e+00    13s
  39   6.65069793e+09  6.64920850e+09  6.62e-08 1.86e-09  2.62e+00    13s
  40   6.65063756e+09  6.64994613e+09  1.15e-06 1.86e-09  1.22e+00    13s
  41   6.65062711e+09  6.65030327e+09  9.72e-07 1.86e-09  5.69e-01    13s
  42   6.65061490e+09  6.65042609e+09  2.27e-07 1.86e-09  3.32e-01    14s
  43   6.65061355e+09  6.65057299e+09  2.46e-07 2.79e-09  7.13e-02    14s
  44   6.65061265e+09  6.65061184e+09  2.16e-07 4.18e-09  1.43e-03    14s
  45   6.65061253e+09  6.65061253e+09  9.66e-08 1.41e-08  3.62e-07    14s
  46   6.65061253e+09  6.65061253e+09  4.55e-12 2.97e-09  2.61e-12    15s

Barrier solved model in 46 iterations and 14.61 seconds
Optimal objective 6.65061253e+09

Crossover log...

   19414 DPushes remaining with DInf 0.0000000e+00                15s
     852 DPushes remaining with DInf 0.0000000e+00                15s
       0 DPushes remaining with DInf 0.0000000e+00                16s
Warning: Markowitz tolerance tightened to 0.5

   79229 PPushes remaining with PInf 0.0000000e+00                16s
       0 PPushes remaining with PInf 0.0000000e+00                20s

  Push phase complete: Pinf 0.0000000e+00, Dinf 2.0998897e-08     20s

Iteration    Objective       Primal Inf.    Dual Inf.      Time
   81015    6.6506125e+09   0.000000e+00   0.000000e+00     21s

Solved with barrier
Solved in 81015 iterations and 21.39 seconds
Optimal objective  6.650612536e+09
Warning: unscaled primal violation = 0.000879756 and residual = 0.000879756
